
 102   30
  10   10   10   10   10   10   10   10   10   10   10   10   10   10   10   10   10   10   10   10   10   10   10   10   10   10   10   10   10   10

   0   0   0   0   0   0   0   0   0   0   0   0   0   0   0   0   0   0   0   0   0   0   0   0   0   0   0   0   0   0   0  30 2 3 4 5 6 7 8 9 10 11 14 15 16 18 20 21 22 23 24 25 26 27 28 30 31 36 37 40 45 47 
  10   0   0   2   0   0   0   2   1   0   0   1   0   0   0   4   0   0   0   0   0   0   0   0   0   0   0   0   0   0   0  13 100 76 68 64 63 59 55 54 46 43 42 41 12 
  10   0   0   0   0   0   0   0   0   2   0   0   0   0   0   0   0   0   0   0   1   1   0   0   0   0   0   0   0   1   1   7 74 68 66 49 29 19 13 
   6   1   0   0   0   0   0   0   0   8   0   0   0   0   0   0   0   0   0   0   0   0   0   0   0   0   0   0   0   4   0  14 76 75 67 64 59 56 55 52 51 50 39 35 29 17 
   6   0   0   0   0   0   0   0   0   0   0   0   1   0   1   0   0   0   2   2   0   0   0   0   0   0   0   0   0   0   0   9 75 67 64 59 48 46 44 33 17 
   7   0   0   0   0   0   0   0   0   0   0   0   0   1   0   0   1   0   0   0   0   0   0   0   0   0   0   0   0   0   0  17 101 100 99 98 94 73 65 64 62 61 59 56 54 51 46 34 32 
   6   8   0   0   0   0   0   0   0   0   0   2   0   0   0   0   0   0   0   0  10   0   0   0   0   0   0   0   0   0   3  25 101 100 99 98 97 96 95 93 92 75 74 73 72 67 66 64 63 59 58 57 56 55 54 53 48 
   8   7   2   4   0   0   0   0   6   0   0   0   0   0   0   0   9   0   0   0   0   5   0   0   0   0   0   0   0   0   0  19 97 96 93 75 74 72 65 64 63 61 60 59 58 55 54 52 50 48 41 
  10   0   3   0   0   0   2   0   0   0   0   0   0   0   0   0   9   3   0   0   0   0   0   0   0   0   0   0   0   0   5  21 101 100 99 98 97 96 93 74 73 72 65 64 63 62 59 57 55 54 53 51 50 
   7   0   0   0   0   0   0   0   8   0   0   0   0   0   0   0   0   0   0   0   0   6   0   0   0   0   0   0   0   3   0  20 101 100 99 98 97 96 93 91 74 73 72 66 63 62 61 60 58 54 51 50 
   1   0   0   0   0   0   0   0   0   0   0   0   0   5   0   0   0   0   0   0   0   0   0   0   0   0   0   4   3   0   0  15 100 97 93 91 89 75 72 71 67 62 59 50 46 44 41 
   1   0   0   0   0   3   0   0   0   0   2   0   0   0   0   0   0   0   0   0   0   7   0   0   0   0   0   0   0   0   0  12 101 98 96 94 75 74 72 67 66 60 56 29 
   2   0   0   0   0   0   0   0   0   4   3   0   0   0   0   0   0   0   0   5   0   0   0   0   0   1   2   0   0   0   0  12 100 99 98 96 65 60 56 55 54 51 48 32 
   3   0   0   0   0   5   0   0   0   0   0   0   0   0   0   0   0   2   0   0   0   0   1   0   4   5   0   0   0   8   0  11 101 100 98 96 73 72 66 60 49 48 32 
   2   0   0   0   0   0   0   0   0   7   0   0   5   0   0   0   0   0   0   0   0   0   0   0   0   0   0   1   0   0   0  18 99 96 93 75 74 73 72 67 66 65 64 62 59 57 55 54 51 50 
   1   0   0   0   1   0   0   0   0   0   9   0   0   0   1   0   0   0   0   0   0   0   0   0   0   0   0   4   7   0   0  12 100 98 96 95 73 72 67 65 63 50 38 32 
   4   0   0   0   0   0   0   0   9  10   0   0   0   8   0   0   0   0   5   0   0   0   0   0   0   5   0   0   0   0   5  12 101 100 98 96 95 94 73 63 62 60 54 32 
   3   0  10   7   0   0   0   0   0   6   0   0   0   0   0   0   0   0   0   0   7   0   7   1   0   0   0   0   0   0   0   7 100 98 95 60 46 42 32 
   5   0   0   0   0   0   0   0   0   0   0   0   0   0   0   0   0   0   0   0   0   0   0  10   0   0   0   0   0   0   0  19 100 98 97 96 93 90 89 75 72 70 65 64 63 62 61 59 55 53 50 
   3   0   0   0   0   0   0   4   0   0  10   0   0   0   0   5   0   0   0   0   0   0   4   0   0   7   0   0   0   0   0  16 101 100 99 97 95 92 89 88 85 75 73 72 67 63 48 46 
   1   6   0  10   0   0   5   0   0   0   0   0   0   0   0   0   0   0   3   0   0   0   0   0   3   0   0   0   0   0   0  18 100 97 96 93 91 90 89 86 76 72 71 70 69 66 61 58 57 41 
  10   0   0   0   0   0   0   0   0   0   0   0   0   0   0   0   0   0   5   7   7   0   0   0   0   0   0   0   0   0   8  16 101 99 96 94 93 91 89 87 75 74 72 71 64 55 53 49 
   3   0   0   0   0   3  10   0   6   0   0   0   0   9  10   0   0   0   0   0   0   0   0   0   0   0   0   9   0   0   0  16 101 96 94 89 86 85 76 75 72 71 69 62 61 60 58 44 
   2   0   0   0   0   0   0   0   0   0   0   0   0   9   0   0   0   0   0  10   0   0   0   0   0   0   0   0   0  10   0  15 101 99 95 93 91 90 73 72 71 63 60 59 58 56 53 
   7   0   0   7   0   0   4   8   0   0   2   0   0   0   0   0   0   0   0   0   0   0   0   0   0   0   6   0   0   0   0  18 100 98 95 92 90 89 86 82 74 72 70 69 68 63 61 59 58 57 
   5   0   0   0   0   0   0   0   0   0   0   0   0   0   0   0   0   0   0   0   0   0   0   0   0   5   0   0   0   0   0  17 101 99 98 94 92 91 90 89 86 85 73 72 71 70 65 62 46 
   9   6   0   0   8   3   0   0   0   0   0   0   4   0   0   0   0   0   0   0   0   0   0   0   0   0   6   0  10   0   0  17 101 99 98 96 94 92 90 88 85 75 74 73 72 71 65 56 53 
   4   0   5   0   0   0   0   0   0   0   0   0   0   0   0   0   0   0   0   0   0   0   0   0   0   0  10   0   8   0   0  19 100 99 97 95 92 91 89 88 86 85 83 73 72 69 68 65 64 63 57 
   9   0   0   0   0   0   0   0   6   0   0   0   8   0   7   0   0   0   0   0   0   5   0   0   0   0   0   0   0   0   0   3 95 73 32 
   3   0   0   2   0   5   0   0   0   0   0   0   0   0   5   3   0   0   8   0   0   0   0   0   0   0   0   0   0   0   0  19 99 98 95 94 92 89 88 87 85 83 82 75 72 71 70 69 67 62 57 
   5   0   0   0   0   0   0   0   0   0   0   0   0   0   0   4   0   0  10   0   0   0   0   0   6   0   0   0   0   0   0  13 99 94 91 90 83 74 73 72 69 63 59 57 54 
   6   0   0   0   0   0   0   0   0   0   9   0   0   0   0   0   0   0   0   2   0   0   0   0   0   0   0   0   0   0   0  14 97 93 92 91 90 89 87 85 82 71 70 58 57 53 
   9   0   0   0   0   6   0   0   0   0   4   0   0   0   0   0   0   0   0   0   0   4   0   0   0   0   0   0   0   8   0  14 98 95 94 91 87 84 81 76 73 72 71 68 66 58 
   2   0   0   0   0   0   0   0   5   4   0   0   0   0   0   0   0   6   0   0   0   0   0   0   0   0   0   0   5   0   4  15 96 93 91 90 89 86 85 83 82 75 72 71 70 63 57 
   1   0   0   0   0   0   0   0   0   0   0   0   6   0   0   0   5   0   0   0   0   0   0   0   0   0   0   0   0   0   0  10 100 93 91 90 89 73 71 66 62 53 
   4   0   0   6   0   0   0   0  10   0   0   0   0   0   0   0   0   0   0   0   0   0   0   0   0   0   0   0   0   0   0  13 99 97 93 91 90 89 86 82 81 79 74 62 59 
   1   0   0   0   0   0   0   0   0   0   0   0   0   0   7   0   0   0   0   0   0   0   0   0   0   0   8   0   4   0   0   8 90 89 88 87 82 71 67 53 
   4   0   0   4   0   0   0   0   0   0   0   0   0   0   0   0   0   0  10   0   5   0   0   0   0   0   0   0   0   0   0   7 91 90 89 85 82 62 53 
   1   0   0   3   0   0   0   0   0   0   5   0   0   0   0   7   8   5   0   0   0   0   0   0   0   0   0   0   0   0   8  13 96 94 93 91 87 86 85 84 82 80 79 78 72 
   2   0   0   0   4   0   0   0   0   0   0   0   0   0   0   0   0   0   0   0   0   0   0   0   0   0   0   5   0   0   0  13 99 98 97 94 93 86 85 84 82 81 80 79 77 
   9   0   0   0   0   0   0   0   5   0   0   9   0   0   0   0   0   8   0   0   8   0   0   0   0   0   0   5   0   0   0  12 101 99 95 92 85 84 83 80 79 78 77 73 
  10   0   0   6   0   0   0   0   0   0  10   0   0   0   6   4   0   0   0   0   7   0   0   0   0   0   0   5   0   0   0  10 99 94 93 90 86 83 82 81 79 62 
   5   0   0   0   0   0   0   6   0   0   0   0   0   0   8   0   0   0   0   0   0   0   0   0   0   0   0   0   0   0   0  11 95 94 92 91 90 87 85 81 80 78 70 
   7   0   5   0   8   0   0   0   0   6   7   0   0   0   0   0   3   0   0   0   0   9   0   0   0   0   0   0   6   0   0  10 98 92 90 87 84 83 81 80 73 70 
   5   0   0   7   0   0   0   0   0   0   4   0   0   0   0   0   0   9   5   4   0   0   0   0   0   0   0   0   0   0   0  10 101 100 91 88 85 83 81 80 77 71 
   3   0   0   0   0   0   0   0  10   0   0   0   0   0   0   6   8   0   0   6   0   0   0   0   0   0   0   0   0   0   5   9 96 87 84 83 79 78 77 74 69 
   7   0   0   9   0   0   6   0   0   0   3   0   0   0   0   0   0   0   0   0   0   0   0   0   0   0   0   0   0   0   0   9 97 94 88 83 82 79 78 72 69 
   2   0   0   0   0   0   0   0   0   0   0   0   5   0   0   7   0   0   0   0   0   0   0   0   0   0   0   0   0   0   0   7 94 91 90 71 70 69 62 
   6   0   0   0   0   0   0   0   0   9   0   0   0   0   0   0   0   0   0   0   0   0   0   4   2   0   0   0   0   0   0   7 95 88 83 81 70 65 62 
   4   0   0   0   0   0  10   0   0   0   8   0   0   0   0   4   0   0   0  10   0   0   0   0   0   0   0   0   0   0   0   9 94 92 86 83 82 80 78 77 69 
   5   0   0   0   0   0   0   0   0   0   0   0   0   0   0   4   0   0   0   0   0   0   0   0   0   4   0   0   0   0   0   9 95 90 88 87 84 83 79 77 71 
   1   0   0   0   0   0   0   6   0   5   0   0   0   0   9   0   0   0   0   0   0   0   0   0   6   0   7   7   0   0   0   6 100 91 86 81 80 70 
  10   0   0   0   0   9   6   0   0   3   0   0   0   0   0  10   0   4   0   6   0   0   0   7   0   0   4   0   5   6   0   5 86 84 83 78 69 
   6   0   0   0   0   0   0   0   0   0   0   0   0   7   0   0   0   4   0   0   0   0   0   0   0   0   0   0   0   0   8   5 89 80 79 78 70 
   4   0   0   0   0   0   0   0   0   0   0   0   9   0   0   0   0   0   0   0   0   0   0   0   0   0   0   0   0   7   0   5 85 84 80 79 78 
   7   0   0   8   0   0   0   0   0   6   0   0   0   0   0   9   0   0   0   0   0   0   8   0   0   0   0   0   0   0   8   4 89 86 82 70 
   6   0   0   0   0   0   0   0   0   0   0   0   5   0   6   0   0   9   0   0   0   0   0   0   0   0   0   0   0   0   0   4 84 80 79 78 
  10   5   0   0   0   0   0   0   0   0   9   0   0   0   0   0   0   0   0   0   0   0   0   0   0   0   0   0   0   0   0   4 88 83 79 77 
   1   0   0   0   0  10   0   0   5   0   0   0   0   0   0   0   0   0   0   0   4   4   0   0   0   0   0   0   0   0   0   4 88 87 85 84 
   3   0   7   0   0   0   0   0   0   0   0   7   0   0   0   0   0   0   3   0   0   0   4   7   0   0   0   0   0   0   0   4 92 82 79 78 
   8   0   0   0   0   8   3   0   0   0   0   9   0   0   9   0   0   0   0   0   0   0   0   0   9  10   0   0   0   0   0   4 84 83 81 79 
   6   0   0   0   0   6   0   0   0   0   0   0   0   0   3   0   0   0   0   4   0   0   8   0   0   0   0   0   0   0   5   3 80 78 77 
   7   0   0   0   0   0   0   0   3   0   0   0   0   0   0   0   0   0   0   0   0   0   0   0   0   0   0   0   0   0   0   3 87 81 77 
   3   0   0   0   0   0   4   0   0   0   0   0   5   0   0   0   0   0   0   0   0   0   0   0   0   0   0   7   0   0   0   3 82 80 79 
   6   0   9   0   0   6   4   0   0   0   0   0   4   0   0   0   0   0   0   0   0   0   0   0   0   0   0   0   6   0   0   2 79 77 
   4   0   0   0   0   0   0  10   0   0   0   0   0   0   5   0   0   0   0   0   0   8   7   0  10   0   0   0   0   0   0   2 85 79 
   3   0   0   0   0   5   0   0   0   0   0   0   0   0   0   0   0   0   0   0   0   0   0   5   0   0   0   0   0   0   0   2 79 77 
   6   0   0   0   0   0   0   0   0   0   0   0   0   0   6   5   0   0   0   0   0   6   0   0   0  10   0   5   0   0   0   2 93 80 
   3   0   0   0   0   0   0   9   0   6   0   0   0   0   0   6   0   6   0   0   0   0   0   0   0   0   0   0   0   0   0   1 81 
  10   0   0   0   0  10   7   0   0   0   0   0   0   3   7   0   0   0   3  10   0   0   0   0  10   4   5   0   0   7   0   1 77 
  10   0   5   8   0   0   0   0   0   0   4   0   0   0   0   0   0   5   0   0   0   0   0   0   0   0   0   0   0   0   7   1 78 
   9   8   0   0   0   0   0   0   0   0   0   0   0   0   0   0   0   0   0   0   0   0   9   0   0   6   0   7   0   0   0   1 77 
   3   0   0   0   0   0   0   0   0   0   0   0   0   0   0   6   0   0  10   0   0   6   0   0   0   0   0   6   0   0   0   1 82 
   1   0   0   0   0   0   0   0   0   0   0   0   0   0   0   0   0   0   9   0   7   0   5   0   0   0   0  10   5   0   0   1 80 
   1   0   0   0   0   0   0   0   0   0   0   0   0   0   8  10   0   0   0   0   6   0   0   0   0   0   0   0   0   0   0   1 77 
   5   0   3   0   0   0   0   0   0   0   0   0   0   0   0   0   0   0   0   0   0   0   0   0   0   0   0   0   5   6   0   1 77 
   1   0   0   0   0   0   0   0   0   0   0   0   0   0   0   0   0   0   0   0   0   0   0   0   0   0   0   9   0   0   0   1 102
   9   6   0   0   0   0   6   0   0   0   0   0   0   0   0   0   0   0   0   0   0   0   6   8   0   0   0   0   0   0   0   1 102
   2   0   0   0   0   0   0   5   0   0   0   0   0   0   0   0   0   7   0   0   0   0   0   0   0   0   0   0   0   0   0   1 102
   1   0   0   0   0   8   0   0   0   0   0   0   0   0   0   0   7   0   0   9   6   9   0   0   0   0   5   0   0   0   0   1 102
   6   0   0   0   9   0   0   0   0   0   0   0   9   0   5   0   0   7   0   0   0   0   8   0   0   8   0   0   0   6   0   1 102
   3   0   0   6   0   0   0   0   0   0   0   0   7   7   0   5   0   0   0   0   0   0   0   0   0   0   0   0   0   0  10   1 102
   3   0   0   8   0   0   0   5   0   0   0   0   0   0   0   0   0   0   0   0   0   9   0   0   4   0   0   0   0   0   0   1 102
   8   0   9   0   0   0   0   0   0   0   0   0   0   0   0   0   0   0   0   0   0   0   0   0   0   8   0   0   0   0   0   1 102
   8   0   0   0   0   0   9   0   0   0   0   0   0   0   0   0   0   0   0   0   0   0   0   0   0   0   0   0   0   0   0   1 102
   6   0   0   0   0   0   0   0   0   0   0   8   0   0   0   0   7   0   0   0   0   0   0   0   0   0   0   0   0   0   0   1 102
   7   0   0   0   0   0   0   0   0   0   0   0   0   0   0   0   0   0   0   0   0   0   0   0   0   0   0   0   0   0   0   1 102
   6   0   7   0   0   0   0   0   0   0   0   0   0   0   0   0   0   0   0   0   0   0   0   0   0   0   0   0   0   0   0   1 102
   4   0   0   0   0   0   0   0   0   0   8   0   0   0   0   0   0   0   0   0   4   0   0   0   0   0   0   0   0   0   7   1 102
   8   0   7   0   0   0   4   0   0   0   5   6   7   0   0   0   0  10   0   0   0   0   0   0   0   0   0   0   0   0   0   1 102
   2   0   0   0   0   3   0   0   0   0   0   4   0   0   0   0   0   0   0   3   0   0   0   0   0   0   0   0   0   0   0   1 102
  10   0   0   0   0  10   0   0   0   0   0   8   9   0   0   0   0   0   0   0   0   0   0   0   0   0   0   0   0   0   0   1 102
   7   0   0   0   0   3   0   4   4   0   0   0   0   0   3   0   0   0   0   0   0   0   5   0   0   0   0   0   0   0   0   1 102
   1   0   0   5   0   6   0   0   0   0   0   0   6   0   8   0   3   0   0   0   0   0   0   0   0   0   0   0   0   0   0   1 102
   5   0   0   0   0   0   0   0   0   6   6   0   0   0   0   0   0   0   0   0   0   0   0   0   0   0   0   0   0   0   0   1 102
   1   0   0   0   0   0   0   0   0   0   0   0   0   0   0   0   0   5   0   0   0   0   0   0   0   0   0   0   0   0   0   1 102
   3   0   6   0   0   0   6   0   0   8   0   0   0   0   0   0   0   0   0   0   0   0   0   0   0   0   0   0   0   0   0   1 102
   8   7   0   0   0   0   0   3   0   0   0   0   6   5   0   9   0   0   0   0   0   0   0   0   0   2   0   0   8   0   0   1 102
   4   0   0   0   0   5   0   0   0   0   0   0   0   0   0   0   0   0   5   0   0   0   0   0   0   0   0   0   0   0   0   1 102
   1   0   0   0   0   0  10   0   0   0   0   0   0   0   0   0   6   0   0   0   0   5   0   0   0   0   0   0   0   0   0   1 102
   8   0   0   0   0   0   0  10   0   0   0   0   0   0   0   0   0   0   0   0   0   0   0   6   0   9   7   0   0   0   0   1 102
   0   0   0   0   0   0   0   0   0   0   0   0   0   0   0   0   0   0   0   0   0   0   0   0   0   0   0   0   0   0   0   0 
